solution status: optimal solution found
objective value:                                    0
thingy.thingy.chamber[6].first.vring_out_y                   24 	(obj:0)
thingy.thingy.chamber[6].first.vring_out_z                   15 	(obj:0)
thingy.thingy.chamber[7].first.vpump3.valves[0].vinlet_y                   23 	(obj:0)
thingy.thingy.chamber[7].first.vpump3.valves[0].vinlet_z                   17 	(obj:0)
thingy.thingy.chamber[9].first.ring_y                   22 	(obj:0)
thingy.thingy.chamber[9].first.ring_z                   17 	(obj:0)
thingy.thingy.chamber[4].first.vring_out_y                   18 	(obj:0)
thingy.thingy.chamber[4].first.vring_out_z                   21 	(obj:0)
thingy.pump_pinholes[1].hole_y                     20 	(obj:0)
thingy.pump_pinholes[1].hole_z                     15 	(obj:0)
thingy.thingy.prep.v1_y                            21 	(obj:0)
thingy.thingy.prep.v1_z                            15 	(obj:0)
thingy.thingy.prep.vout1_y                         21 	(obj:0)
thingy.thingy.prep.vout1_z                         11 	(obj:0)
thingy.thingy.chamber[9].first.vring_out_y                   22 	(obj:0)
thingy.thingy.chamber[9].first.vring_out_z                   15 	(obj:0)
thingy.thingy.chamber[1].first.voutlet_y                   19 	(obj:0)
thingy.thingy.chamber[1].first.voutlet_z                   25 	(obj:0)
thingy.thingy.chamber[0].first.voutlet_y                   24 	(obj:0)
thingy.thingy.chamber[0].first.voutlet_z                   16 	(obj:0)
thingy.thingy.chamber[3].first.ring_y                   25 	(obj:0)
thingy.thingy.chamber[3].first.ring_z                   17 	(obj:0)
thingy.thingy.chamber[5].first.ring_y                   20 	(obj:0)
thingy.thingy.chamber[5].first.ring_z                   22 	(obj:0)
thingy.thingy.chamber[2].first.voutlet_y                   21 	(obj:0)
thingy.thingy.chamber[2].first.voutlet_z                   17 	(obj:0)
thingy.thingy.chamber[1].first.vpump3.valves[0].vinlet_y                   21 	(obj:0)
thingy.thingy.chamber[1].first.vpump3.valves[0].vinlet_z                   22 	(obj:0)
thingy.flush_pump_pinholes[1].hole_y                   25 	(obj:0)
thingy.flush_pump_pinholes[1].hole_z                   15 	(obj:0)
thingy.thingy.chamber[8].first.voutlet_y                   22 	(obj:0)
thingy.thingy.chamber[8].first.voutlet_z                   21 	(obj:0)
thingy.thingy.chamber[4].first.voutlet_y                   23 	(obj:0)
thingy.thingy.chamber[4].first.voutlet_z                   22 	(obj:0)
thingy.thingy.chamber[5].first.voutlet_y                   20 	(obj:0)
thingy.thingy.chamber[5].first.voutlet_z                   21 	(obj:0)
thingy.thingy.chamber[1].first.ring_y                   25 	(obj:0)
thingy.thingy.chamber[1].first.ring_z                   19 	(obj:0)
thingy.thingy.chamber[6].first.voutlet_y                   18 	(obj:0)
thingy.thingy.chamber[6].first.voutlet_z                   15 	(obj:0)
thingy.thingy.chamber[6].first.vpump3.valves[0].vinlet_y                   19 	(obj:0)
thingy.thingy.chamber[6].first.vpump3.valves[0].vinlet_z                   17 	(obj:0)
thingy.thingy.chamber[3].first.voutlet_y                   19 	(obj:0)
thingy.thingy.chamber[3].first.voutlet_z                   15 	(obj:0)
thingy.thingy.chamber[5].first.vpump3.valves[0].vinlet_y                   24 	(obj:0)
thingy.thingy.chamber[5].first.vpump3.valves[0].vinlet_z                   18 	(obj:0)
thingy.thingy.chamber[5].first.vring_out_y                   18 	(obj:0)
thingy.thingy.chamber[5].first.vring_out_z                   18 	(obj:0)
thingy.thingy.chamber[4].first.ring_y                   19 	(obj:0)
thingy.thingy.chamber[4].first.ring_z                   18 	(obj:0)
thingy.flush_pump_pinholes[0].hole_y                   19 	(obj:0)
thingy.flush_pump_pinholes[0].hole_z                   16 	(obj:0)
thingy.thingy.chamber[8].first.vring_out_y                   21 	(obj:0)
thingy.thingy.chamber[8].first.vring_out_z                   21 	(obj:0)
thingy.pump_pinholes[0].hole_y                     20 	(obj:0)
thingy.pump_pinholes[0].hole_z                     16 	(obj:0)
thingy.thingy.chamber[2].first.vring_out_y                   24 	(obj:0)
thingy.thingy.chamber[2].first.vring_out_z                   19 	(obj:0)
thingy.thingy.chamber[7].first.ring_y                   19 	(obj:0)
thingy.thingy.chamber[7].first.ring_z                   19 	(obj:0)
thingy.thingy.chamber[0].first.ring_y                   24 	(obj:0)
thingy.thingy.chamber[0].first.ring_z                   17 	(obj:0)
thingy.thingy.chamber[0].first.vring_out_y                   23 	(obj:0)
thingy.thingy.chamber[0].first.vring_out_z                   16 	(obj:0)
thingy.ctrl_prep_inlet_hole_y                      25 	(obj:0)
thingy.ctrl_prep_inlet_hole_z                      11 	(obj:0)
thingy.thingy.chamber[2].first.vpump3.valves[0].vinlet_y                   25 	(obj:0)
thingy.thingy.chamber[2].first.vpump3.valves[0].vinlet_z                   20 	(obj:0)
thingy.thingy.chamber[2].first.ring_y                   21 	(obj:0)
thingy.thingy.chamber[2].first.ring_z                   23 	(obj:0)
thingy.thingy.chamber[7].first.vring_out_y                   22 	(obj:0)
thingy.thingy.chamber[7].first.vring_out_z                   16 	(obj:0)
thingy.thingy.chamber[0].first.vpump3.valves[0].vinlet_y                   23 	(obj:0)
thingy.thingy.chamber[0].first.vpump3.valves[0].vinlet_z                   18 	(obj:0)
thingy.thingy.chamber[9].first.vpump3.valves[0].vinlet_y                   21 	(obj:0)
thingy.thingy.chamber[9].first.vpump3.valves[0].vinlet_z                   18 	(obj:0)
thingy.thingy.chamber[6].first.ring_y                   20 	(obj:0)
thingy.thingy.chamber[6].first.ring_z                   17 	(obj:0)
thingy.thingy.chamber[3].first.vring_out_y                   24 	(obj:0)
thingy.thingy.chamber[3].first.vring_out_z                   20 	(obj:0)
thingy.thingy.chamber[7].first.voutlet_y                   19 	(obj:0)
thingy.thingy.chamber[7].first.voutlet_z                   20 	(obj:0)
thingy.thingy.chamber[8].first.vpump3.valves[0].vinlet_y                   19 	(obj:0)
thingy.thingy.chamber[8].first.vpump3.valves[0].vinlet_z                   21 	(obj:0)
thingy.thingy.chamber[9].first.voutlet_y                   22 	(obj:0)
thingy.thingy.chamber[9].first.voutlet_z                   18 	(obj:0)
thingy.thingy.chamber[8].first.ring_y                   23 	(obj:0)
thingy.thingy.chamber[8].first.ring_z                   20 	(obj:0)
thingy.thingy.chamber[1].first.vring_out_y                   21 	(obj:0)
thingy.thingy.chamber[1].first.vring_out_z                   19 	(obj:0)
thingy.thingy.prep.v2_y                            23 	(obj:0)
thingy.thingy.prep.v2_z                            15 	(obj:0)
thingy.flush_prep_inlet_hole_y                     25 	(obj:0)
thingy.flush_prep_inlet_hole_z                     12 	(obj:0)
thingy.thingy.chamber[4].first.vpump3.valves[0].vinlet_y                   19 	(obj:0)
thingy.thingy.chamber[4].first.vpump3.valves[0].vinlet_z                   22 	(obj:0)
thingy.thingy.chamber[3].first.vpump3.valves[0].vinlet_y                   23 	(obj:0)
thingy.thingy.chamber[3].first.vpump3.valves[0].vinlet_z                   19 	(obj:0)
